language ESSENCE' 1.0
letting w be 8
letting n be 56
letting noCrates be 1
letting noGoals be 1
letting pInit be 41
letting stps be 8
letting crates be [35]
letting goals be [45]
letting noWalls be 26
letting walls be [0, 1, 2, 3, 4, 5, 6, 7, 8, 15, 16, 23, 24, 31, 32, 39, 40, 47, 48, 49, 50, 51, 52, 53, 54, 55]